0 67 
1 71 
2 75 
3 74 
4 71 
5 70 
6 72 
7 69 
8 68 
9 65 
10 66 
11 64 
12 64 
13 64 
14 59 
15 58 
16 58 
17 56 
18 51 
19 49 
20 49 
21 47 
22 45 
23 44 
24 39 
25 39 
26 38 
27 36 
28 38 
29 37 
30 35 
31 33 
32 30 
33 29 
34 27 
35 25 
36 23 
37 23 
38 22 
39 21 
40 23 
41 18 
42 17 
43 15 
44 14 
45 14 
46 12 
47 10 
48 10 
49 8 
50 6 
51 6 
52 4 
53 4 
54 2 
55 0 
56 0 

